NAME = AISearchfile180,
TOURSIZE = 180,
LENGTH = 1950,
1,141,110,153,102,96,152,115,100,49,177,76,26,69,92,79,90,22,12,159,31,160,112,75,43,57,58,10,108,148,18,87,9,82,155,103,121,84,38,78,13,56,179,41,123,21,97,107,66,19,23,34,44,16,94,4,175,36,124,95,91,85,3,116,174,39,146,47,81,7,114,171,161,51,61,70,27,122,156,32,68,162,29,158,173,164,135,74,25,131,24,106,48,54,169,40,109,6,165,17,67,178,147,167,5,136,125,63,30,105,89,143,11,149,145,46,59,35,98,151,134,129,80,137,72,77,130,52,120,144,42,64,133,104,117,101,73,93,88,176,172,45,65,118,111,2,53,8,140,166,157,127,170,28,154,14,60,55,139,180,126,83,99,138,33,37,20,86,168,113,132,142,50,62,71,128,119,163,15,150
